NAME : portcgen-17-28
COMMENT : portcgen N=17, seed=28
TYPE : TSP
DIMENSION : 17
EDGE_WEIGHT_TYPE : EUC_2D
NODE_COORD_SECTION
1 171269 -125988
2 270211 -241212
3 -227254 409891
4 -133465 91105
5 -182943 -31041
6 -487157 -129503
7 271735 -274444
8 -19402 477769
9 61463 257327
10 -256677 399799
11 -41212 99035
12 324617 -400017
13 400034 -222234
14 -235486 -192856
15 -7145 -8179
16 234966 -249187
17 260024 -7694
